NAME : example-100-5.3388953583.tour
COMMENT : Length = 3388953583
COMMENT : Found by LKH [Keld Helsgaun] Fri Nov 23 23:39:26 2018
TYPE : TOUR
DIMENSION : 105
TOUR_SECTION
1
14
9
10
16
66
33
39
51
43
4
36
76
41
84
67
73
31
21
35
80
48
93
96
19
90
100
27
7
34
101
45
98
82
24
40
42
13
20
3
61
95
12
28
53
62
52
55
49
74
54
97
60
25
15
81
70
56
37
88
18
69
30
58
99
46
32
94
83
47
29
92
68
91
75
23
22
71
26
64
79
86
17
87
2
78
72
59
11
63
85
44
105
8
65
57
5
77
89
50
38
6
103
102
104
-1
EOF
